&inputpp
  prefix = 'YCrO3'
   outdir = './out/'
   nwan = 56
   plot_bands = .true.
   form='amulet'
/
WANNIER_AC
 Wannier# 1 45 100
 atom 5
 d 1 
 Wannier# 2 45 100
 atom 5
 d 2 
 Wannier# 3 45 100
 atom 5
 d 3 
 Wannier# 4 45 100
 atom 5
 d 4 
 Wannier# 5 45 100
 atom 5
 d 5 
 Wannier# 6 45 100
 atom 6
 d 1 
 Wannier# 7 45 100
 atom 6
 d 2 
 Wannier# 8 45 100
 atom 6
 d 3 
 Wannier# 9 45 100
 atom 6
 d 4 
 Wannier# 10 45 100
 atom 6
 d 5
 Wannier# 11 45 100
 atom 7
 d 1 
 Wannier# 12 45 100
 atom 7
 d 2 
 Wannier# 13 45 100
 atom 7
 d 3 
 Wannier# 14 45 100
 atom 7
 d 4 
 Wannier# 15 45 100
 atom 7
 d 5 
 Wannier# 16 45 100
 atom 8
 d 1 
 Wannier# 17 45 100
 atom 8
 d 2 
 Wannier# 18 45 100
 atom 8
 d 3 
 Wannier# 19 45 100
 atom 8
 d 4 
 Wannier# 20 45 100
 atom 8
 d 5
Wannier# 21 45 100
 atom 9
 p 1 
 Wannier# 22 45 100
 atom 9
 p 2 
 Wannier# 23 45 100
 atom 9
 p 3 
 Wannier# 24 45 100
 atom 10
 p 1 
 Wannier# 25 45 100
 atom 10
 p 2 
 Wannier# 26 45 100
 atom 10
 p 3 
 Wannier# 27 45 100
 atom 11
 p 1 
 Wannier# 28 45 100
 atom 11
 p 2 
 Wannier# 29 45 100
 atom 11
 p 3 
 Wannier# 30 45 100
 atom 12
 p 1
 Wannier# 31 45 100
 atom 12
 p 2 
 Wannier# 32 45 100
 atom 12
 p 3 
 Wannier# 33 45 100
 atom 13
 p 1 
 Wannier# 34 45 100
 atom 13
 p 2 
 Wannier# 35 45 100
 atom 13
 p 3 
 Wannier# 36 45 100
 atom 14
 p 1 
 Wannier# 37 45 100
 atom 14
 p 2 
 Wannier# 38 45 100
 atom 14
 p 3 
 Wannier# 39 45 100
 atom 15
 p 1 
 Wannier# 40 45 100
 atom 15
 p 2
 Wannier# 41 45 100
 atom 15
 p 3 
 Wannier# 42 45 100
 atom 16
 p 1 
 Wannier# 43 45 100
 atom 16
 p 2 
 Wannier# 44 45 100
 atom 16
 p 3 
 Wannier# 45 45 100
 atom 17
 p 1 
 Wannier# 46 45 100
 atom 17
 p 2 
 Wannier# 47 45 100
 atom 17
 p 3 
 Wannier# 48 45 100
 atom 18
 p 1 
 Wannier# 49 45 100
 atom 18
 p 2 
 Wannier# 50 45 100
 atom 18
 p 3 
 Wannier# 51 45 100
 atom 19
 p 1
 Wannier# 52 45 100
 atom 19
 p 2 
 Wannier# 53 45 100
 atom 19
 p 3 
 Wannier# 54 45 100
 atom 20
 p 1 
 Wannier# 55 45 100
 atom 20
 p 2 
 Wannier# 56 45 100
 atom 20
 p 3 
    Spin#2:
 Wannier# 1 45 100
 atom 5
 d 1 
 Wannier# 2 45 100
 atom 5
 d 2 
 Wannier# 3 45 100
 atom 5
 d 3 
 Wannier# 4 45 100
 atom 5
 d 4 
 Wannier# 5 45 100
 atom 5
 d 5 
 Wannier# 6 45 100
 atom 6
 d 1 
 Wannier# 7 45 100
 atom 6
 d 2 
 Wannier# 8 45 100
 atom 6
 d 3 
 Wannier# 9 45 100
 atom 6
 d 4 
 Wannier# 10 45 100
 atom 6
 d 5
 Wannier# 11 45 100
 atom 7
 d 1 
 Wannier# 12 45 100
 atom 7
 d 2 
 Wannier# 13 45 100
 atom 7
 d 3 
 Wannier# 14 45 100
 atom 7
 d 4 
 Wannier# 15 45 100
 atom 7
 d 5 
 Wannier# 16 45 100
 atom 8
 d 1 
 Wannier# 17 45 100
 atom 8
 d 2 
 Wannier# 18 45 100
 atom 8
 d 3 
 Wannier# 19 45 100
 atom 8
 d 4 
 Wannier# 20 45 100
 atom 8
 d 5
Wannier# 21 45 100
 atom 9
 p 1 
 Wannier# 22 45 100
 atom 9
 p 2 
 Wannier# 23 45 100
 atom 9
 p 3 
 Wannier# 24 45 100
 atom 10
 p 1 
 Wannier# 25 45 100
 atom 10
 p 2 
 Wannier# 26 45 100
 atom 10
 p 3 
 Wannier# 27 45 100
 atom 11
 p 1 
 Wannier# 28 45 100
 atom 11
 p 2 
 Wannier# 29 45 100
 atom 11
 p 3 
 Wannier# 30 45 100
 atom 12
 p 1
 Wannier# 31 45 100
 atom 12
 p 2 
 Wannier# 32 45 100
 atom 12
 p 3 
 Wannier# 33 45 100
 atom 13
 p 1 
 Wannier# 34 45 100
 atom 13
 p 2 
 Wannier# 35 45 100
 atom 13
 p 3 
 Wannier# 36 45 100
 atom 14
 p 1 
 Wannier# 37 45 100
 atom 14
 p 2 
 Wannier# 38 45 100
 atom 14
 p 3 
 Wannier# 39 45 100
 atom 15
 p 1 
 Wannier# 40 45 100
 atom 15
 p 2
 Wannier# 41 45 100
 atom 15
 p 3 
 Wannier# 42 45 100
 atom 16
 p 1 
 Wannier# 43 45 100
 atom 16
 p 2 
 Wannier# 44 45 100
 atom 16
 p 3 
 Wannier# 45 45 100
 atom 17
 p 1 
 Wannier# 46 45 100
 atom 17
 p 2 
 Wannier# 47 45 100
 atom 17
 p 3 
 Wannier# 48 45 100
 atom 18
 p 1 
 Wannier# 49 45 100
 atom 18
 p 2 
 Wannier# 50 45 100
 atom 18
 p 3 
 Wannier# 51 45 100
 atom 19
 p 1
 Wannier# 52 45 100
 atom 19
 p 2 
 Wannier# 53 45 100
 atom 19
 p 3 
 Wannier# 54 45 100
 atom 20
 p 1 
 Wannier# 55 45 100
 atom 20
 p 2 
 Wannier# 56 45 100
 atom 20
 p 3 

