generated by phonopy
   1.0
     5.3191242218000001    0.0000000000000000    0.0000000000000000
     0.0000000000000000    5.6178374289999997    0.0000000000000000
     0.0000000000000000    0.0000000000000000    7.6686959266999999
Y Cr O
   4    4   12
Direct
  0.0186042354000000  0.9335429381000000  0.2500000036000000
  0.5186042264000000  0.5664570619000000  0.7500000196000000
  0.4813957736000001  0.4335429381000001  0.2499999964000000
  0.9813957286000000  0.0664570619000000  0.7500000124000000
  0.0000000000000000  0.5000000000000000  0.0000000000000000
  0.5000000000000000  0.0000000000000000  0.0000000000000000
  0.5000000000000000  0.0000000000000000  0.5000000000000000
  0.0000000000000000  0.5000000000000000  0.5000000000000000
  0.6938130374000000  0.3018851806000000  0.9425664092000000
  0.1938130463000000  0.1981148199000000  0.0574335495000000
  0.8061869626000000  0.8018851376000000  0.5574335598000000
  0.3061869537000000  0.6981148629000000  0.4425664585000000
  0.3061869626000000  0.6981148624000000  0.0574335368000000
  0.8061869536999999  0.8018851371000000  0.9425663965000000
  0.1938130374000000  0.1981148194000000  0.4425664712000000
  0.6938130463000000  0.3018851801000000  0.5574335725000000
  0.1116579028000000  0.4583461962000000  0.7500000073999999
  0.6116579138000000  0.0416537728000000  0.2499999914000000
  0.3883421312000000  0.9583462382000001  0.7500000246000000
  0.8883420412000000  0.5416538038000001  0.2500000086000000
