&CONTROL
  calculation = 'scf'
  etot_conv_thr =   7.35E-8        	! 1e-6  eV
  forc_conv_thr =   3.889E-5       	! 0.001 eV/A
  outdir = './out/'
  prefix = 'YCrO3'
  pseudo_dir = '/home/adi/Dropbox/SharedItems/Sirssystem/pseudo/'
  tprnfor = .true.
  tstress = .true.
  verbosity = 'high'
/
&SYSTEM
  ecutwfc =  100
  ibrav = 0
  nat = 20
  nspin = 2
  ntyp = 4
  occupations = 'smearing'
    smearing = 'gauss',
    degauss = 0.02,
  starting_magnetization(2) =   0.5
  starting_magnetization(3) =   -0.5
  lda_plus_u = .TRUE.
  U_projection_type = 'ortho-atomic',
  lda_plus_u_kind = 0 
  Hubbard_u(2) = 3.7
  Hubbard_u(3) = 3.7
/
 &electrons
    conv_thr =  1.d-10
    mixing_beta = 0.7
/
&IONS
  ion_dynamics = 'bfgs',            ! BFGS quasi-newton algorithm       
 / 
&cell
   cell_dynamics = 'bfgs',          ! BFGS quasi-newton algorithm
   press = 0.00 ,                   ! Target Pressure in relaxation
/
ATOMIC_SPECIES
Y      88.90585 Y.pbe-spn-kjpaw_psl.1.0.0.UPF
Cr1   51.9961  Cr.pbe-spn-kjpaw_psl.1.0.0.UPF
Cr2   51.9961  Cr.pbe-spn-kjpaw_psl.1.0.0.UPF
O    15.999   O.pbe-kjpaw.UPF
CELL_PARAMETERS (angstrom)
     5.3191242218    0.000000000    0.0000000000
     0.0000000000    5.617837429    0.0000000000
     0.0000000000    0.000000000    7.6686959267
      
ATOMIC_POSITIONS (crystal)
Y    0.0186042314620991  0.9335429252623548  0.2500537791040614
Y    0.5186042259635073  0.5664570761660203  0.7500537948857391
Y    0.4813957737581272  0.4335429250000781  0.2499462214035552
Y    0.9813957287425368  0.0664570745396973  0.7499462367361451
Cr1  0.0000000025771697  0.5000000027370540  0.0000000058362221
Cr2  0.5000000008891642  0.0000000011101857  0.0000000024435913
Cr1  0.4999999908641449  0.0000000036016741  0.4999999984947931
Cr2  0.9999999869134206  0.4999999916669399  0.5000000000484003
O    0.6920574167417106  0.3033801409928057  0.9418375241807513
O    0.1955687950558126  0.1996098922328933  0.0567045119391566
O    0.8079425942048568  0.8033801032910339  0.5581624492988571
O    0.3044312295778340  0.6996099336762870  0.4432954765569407
O    0.3079425778058588  0.6966198706266505  0.0581624074183444
O    0.8044312163983431  0.8003900994641301  0.9432954302734115
O    0.1920574244151020  0.1966198569724527  0.4418376011263817
O    0.6955688062050673  0.3003901307329892  0.5567045253526995
O    0.1116578685154498  0.4583461678117729  0.7497430679296353
O    0.6116579093111523  0.0416537705947421  0.2497430508541058
O    0.3883421664216190  0.9583462190012225  0.7502569642473069
O    0.8883420842582557  0.5416538229556743  0.2502569446799959
K_POINTS automatic
4 4 4 0 0 0

